0 2373
1 2373
2 2373
3 2373
4 2373
5 2373
6 2373
7 2373
8 2373
9 2373
10 2373
11 2373
12 2373
13 2373
14 2373
15 2239
16 2239
17 2239
18 2239
19 2105
20 2049
21 1998
22 1998
23 1998
24 1998
25 1998
26 1998
27 1998
28 1998
29 1998
30 1998
31 1998
32 1998
33 1998
34 1998
35 1998
36 1998
37 1998
38 1998
39 1998
40 1998
41 1998
42 1998
43 1998
44 1998
45 1998
46 1998
47 1998
48 1998
49 1998
50 1998
51 1998
52 1998
53 1998
54 1939
55 1939
56 1939
57 1939
58 1939
59 1939
60 1939
61 1939
62 1939
63 1939
64 1939
65 1939
66 1939
67 1873
68 1857
69 1857
70 1857
71 1857
72 1857
73 1857
74 1857
75 1857
76 1857
77 1857
78 1857
79 1857
80 1857
81 1857
82 1857
83 1857
84 1857
85 1857
86 1857
87 1857
88 1857
89 1857
90 1857
91 1727
92 1727
93 1727
94 1727
95 1727
96 1727
97 1727
98 1727
99 1727
100 1699
101 1699
102 1699
103 1699
104 1699
105 1699
106 1699
107 1699
108 1699
109 1699
110 1699
111 1699
112 1696
113 1609
114 1609
115 1609
116 1609
117 1588
118 1588
119 1588
120 1588
121 1588
122 1588
123 1588
124 1588
125 1588
126 1588
127 1588
128 1588
129 1588
130 1588
131 1588
132 1588
133 1588
134 1588
135 1588
136 1588
137 1588
138 1588
139 1588
140 1588
141 1588
142 1588
143 1588
144 1588
145 1588
146 1588
147 1588
148 1588
149 1588
150 1588
151 1588
152 1588
153 1537
154 1537
155 1537
156 1537
157 1537
158 1537
159 1537
160 1537
161 1537
162 1537
163 1537
164 1532
165 1532
166 1532
167 1532
168 1532
169 1532
170 1532
171 1532
172 1532
173 1532
174 1532
175 1532
176 1532
177 1532
178 1532
179 1532
180 1532
181 1532
182 1532
183 1532
184 1532
185 1532
186 1532
187 1532
188 1532
189 1532
190 1532
191 1532
192 1532
193 1532
194 1532
195 1532
196 1532
197 1532
198 1532
199 1532
200 1532
201 1532
202 1532
203 1532
204 1532
205 1532
206 1532
207 1532
208 1532
209 1532
210 1532
211 1532
212 1532
213 1532
214 1532
215 1532
216 1532
217 1532
218 1532
219 1532
220 1532
221 1532
222 1532
223 1532
224 1532
225 1532
226 1532
227 1532
228 1532
229 1532
230 1532
231 1532
232 1532
233 1532
234 1532
235 1532
236 1532
237 1532
238 1532
239 1532
240 1532
241 1532
242 1532
243 1532
244 1522
245 1522
246 1522
247 1522
248 1522
249 1522
250 1522
251 1522
252 1522
253 1522
254 1522
255 1522
256 1522
257 1522
258 1522
259 1522
260 1522
261 1522
262 1522
263 1522
264 1522
265 1522
266 1522
267 1522
268 1522
269 1522
270 1522
271 1522
272 1522
273 1522
274 1522
275 1522
276 1522
277 1522
278 1522
279 1522
280 1522
281 1522
282 1522
283 1522
284 1522
285 1522
286 1522
287 1522
288 1522
289 1521
290 1521
291 1521
292 1521
293 1521
294 1521
295 1521
296 1521
297 1521
298 1521
299 1521
300 1521
301 1521
302 1521
303 1521
304 1521
305 1521
306 1521
307 1521
308 1521
309 1521
310 1521
311 1521
312 1521
313 1521
314 1521
315 1521
316 1521
317 1521
318 1521
319 1521
320 1521
321 1521
322 1521
323 1521
324 1521
325 1521
326 1521
327 1521
328 1521
329 1521
330 1521
331 1521
332 1521
333 1521
334 1521
335 1521
336 1521
337 1521
338 1521
339 1521
340 1521
341 1521
342 1521
343 1521
344 1521
345 1521
346 1521
347 1521
348 1521
349 1521
350 1521
351 1521
352 1521
353 1521
354 1521
355 1521
356 1521
357 1521
358 1521
359 1521
360 1521
361 1521
362 1521
363 1521
364 1521
365 1521
366 1521
367 1521
368 1497
369 1497
370 1497
371 1497
372 1497
373 1497
374 1497
375 1497
376 1497
377 1497
378 1497
379 1497
380 1497
381 1497
382 1497
383 1497
384 1497
385 1497
386 1497
387 1497
388 1497
389 1497
390 1497
391 1497
392 1497
393 1497
394 1497
395 1497
396 1497
397 1497
398 1497
399 1497
400 1497
401 1497
402 1497
403 1497
404 1497
405 1497
406 1497
407 1497
408 1497
409 1497
410 1497
411 1497
412 1497
413 1497
414 1497
415 1497
416 1497
417 1497
418 1497
419 1497
420 1497
421 1497
422 1497
423 1497
424 1497
425 1497
426 1497
427 1497
428 1497
429 1497
430 1497
431 1497
432 1497
433 1497
434 1497
435 1497
436 1497
437 1497
438 1497
439 1497
440 1497
441 1497
442 1497
443 1497
444 1497
445 1497
446 1497
447 1497
448 1497
449 1497
450 1497
451 1497
452 1497
453 1497
454 1497
455 1497
456 1497
457 1497
458 1497
459 1497
460 1497
461 1497
462 1497
463 1497
464 1497
465 1494
466 1494
467 1494
468 1494
469 1494
470 1494
471 1494
472 1494
473 1494
474 1494
475 1494
476 1494
477 1494
478 1494
479 1494
480 1494
481 1494
482 1494
483 1494
484 1494
485 1494
486 1494
487 1491
488 1491
489 1491
490 1491
491 1491
492 1491
493 1491
494 1491
495 1491
496 1491
497 1491
498 1491
499 1490
500 1490
501 1490
502 1490
503 1490
504 1490
505 1490
506 1490
507 1490
508 1490
509 1490
510 1490
511 1490
512 1490
513 1490
514 1490
515 1490
516 1490
517 1490
518 1490
519 1490
520 1490
521 1490
522 1490
523 1490
524 1490
525 1490
526 1490
527 1490
528 1490
529 1490
530 1490
531 1490
532 1490
533 1490
534 1490
535 1490
536 1490
537 1490
538 1490
539 1478
540 1478
541 1478
542 1478
543 1478
544 1478
545 1478
546 1478
547 1478
548 1478
549 1478
550 1478
551 1478
552 1478
553 1478
554 1478
555 1478
556 1478
557 1478
558 1478
559 1478
560 1478
561 1478
562 1478
563 1478
564 1478
565 1478
566 1478
567 1478
568 1478
569 1478
570 1478
571 1449
572 1449
573 1449
574 1449
575 1449
576 1449
577 1449
578 1449
579 1449
580 1449
581 1449
582 1449
583 1449
584 1449
585 1449
586 1449
587 1449
588 1449
589 1449
590 1449
591 1449
592 1449
593 1449
594 1449
595 1449
596 1449
597 1449
598 1449
599 1449
600 1449
601 1449
602 1449
603 1449
604 1449
605 1449
606 1449
607 1449
608 1449
609 1449
610 1449
611 1449
612 1449
613 1449
614 1449
615 1449
616 1449
617 1449
618 1449
619 1449
620 1449
621 1449
622 1449
623 1449
624 1449
625 1449
626 1449
627 1449
628 1449
629 1449
630 1449
631 1449
632 1449
633 1449
634 1449
635 1449
636 1449
637 1449
638 1449
639 1449
640 1449
641 1449
642 1449
643 1449
644 1449
645 1449
646 1449
647 1449
648 1449
649 1449
650 1449
651 1449
652 1449
653 1449
654 1449
655 1449
656 1449
657 1449
658 1449
659 1449
660 1449
661 1449
662 1449
663 1449
664 1449
665 1449
666 1449
667 1449
668 1449
669 1449
670 1449
671 1449
672 1449
673 1449
674 1449
675 1449
676 1449
677 1449
678 1449
679 1449
680 1449
681 1449
682 1449
683 1449
684 1449
685 1449
686 1449
687 1449
688 1449
689 1449
690 1449
691 1449
692 1449
693 1449
694 1449
695 1449
696 1449
697 1449
698 1449
699 1449
700 1449
701 1449
702 1449
703 1449
704 1449
705 1449
706 1449
707 1449
708 1449
709 1435
710 1435
711 1435
712 1435
713 1435
714 1435
715 1435
716 1435
717 1435
718 1435
719 1435
720 1435
721 1435
722 1435
723 1426
724 1426
725 1426
726 1426
727 1426
728 1426
729 1426
730 1426
731 1426
732 1426
733 1426
734 1426
735 1426
736 1426
737 1343
738 1343
739 1343
740 1343
741 1343
742 1343
743 1343
744 1343
745 1343
746 1343
747 1343
748 1343
749 1343
750 1343
751 1343
752 1343
753 1343
754 1343
755 1343
756 1343
757 1343
758 1343
759 1343
760 1343
761 1343
762 1343
763 1343
764 1343
765 1343
766 1343
767 1343
768 1343
769 1343
770 1343
771 1343
772 1343
773 1343
774 1343
775 1343
776 1343
777 1343
778 1343
779 1343
780 1343
781 1343
782 1343
783 1343
784 1343
785 1343
786 1343
787 1343
788 1343
789 1343
790 1343
791 1343
792 1343
793 1343
794 1343
795 1343
796 1343
797 1343
798 1343
799 1343
800 1343
801 1343
802 1343
803 1343
804 1343
805 1343
806 1343
807 1343
808 1343
809 1343
810 1343
811 1343
812 1343
813 1343
814 1343
815 1343
816 1343
817 1343
818 1343
819 1343
820 1343
821 1343
822 1343
823 1343
824 1343
825 1343
826 1343
827 1343
828 1343
829 1343
830 1343
831 1343
832 1343
833 1343
834 1343
835 1343
836 1343
837 1343
838 1343
839 1343
840 1343
841 1343
842 1343
843 1343
844 1343
845 1343
846 1343
847 1343
848 1343
849 1343
850 1343
851 1343
852 1343
853 1343
854 1343
855 1343
856 1343
857 1343
858 1343
859 1343
860 1343
861 1343
862 1343
863 1343
864 1343
865 1343
866 1343
867 1343
868 1343
869 1343
870 1343
871 1343
872 1343
873 1343
874 1343
875 1343
876 1343
877 1330
878 1330
879 1330
880 1330
881 1330
882 1330
883 1330
884 1330
885 1330
886 1330
887 1330
888 1330
889 1330
890 1330
891 1330
892 1330
893 1330
894 1330
895 1330
896 1330
897 1330
898 1330
899 1330
900 1330
901 1330
902 1330
903 1330
904 1330
905 1330
906 1330
907 1330
908 1330
909 1330
910 1330
911 1330
912 1330
913 1330
914 1330
915 1330
916 1330
917 1330
918 1330
919 1330
920 1330
921 1330
922 1330
923 1330
924 1330
925 1330
926 1330
927 1330
928 1330
929 1330
930 1330
931 1330
932 1330
933 1330
934 1330
935 1330
936 1330
937 1330
938 1330
939 1330
940 1330
941 1330
942 1330
943 1330
944 1330
945 1330
946 1330
947 1330
948 1330
949 1330
950 1330
951 1330
952 1330
953 1330
954 1330
955 1330
956 1330
957 1330
958 1330
959 1330
960 1330
961 1330
962 1330
963 1330
964 1330
965 1330
966 1330
967 1330
968 1330
969 1330
970 1330
971 1330
972 1330
973 1330
974 1268
975 1268
976 1268
977 1268
978 1268
979 1268
980 1268
981 1268
982 1268
983 1268
984 1268
985 1268
986 1268
987 1268
988 1268
989 1268
990 1268
991 1268
992 1268
993 1268
994 1268
995 1268
996 1268
997 1268
998 1268
999 1268
Best: [[2,3,18,32,4,24,6,30,21],
       [31,8,14,11,16,26],
       [15,25,7,27],
       [28,19,5,12,9,29],
       [17,13,22,20,10,23]], fitness: 1268
